61	12	4	56	
10	10	10	10

0	0	0	0	0	0	3	1	2	3
1	4	6	2	1	7	3	4	6	7
2	4	7	7	10	4	3	5	6	7
3	10	9	9	10	9	3	4	6	7
4	2	4	7	3	8	2	5	10
5	4	7	1	1	5	1	9
6	6	3	5	5	9	2	8	9
7	2	1	10	1	2	2	8	9
8	10	8	3	10	5	1	10
9	6	2	6	7	7	1	11
10	4	9	3	7	5	1	11
11	0	0	0	0	0	0
